
c turning on binary mode checking

c parsing input formula with 13589 variables and 41284 clauses

c finished parsing, read 3938 bytes from proof file

c detected empty clause; start verification via backward checking

c 414 of 41284 clauses in core                            

c 105 of 600 lemmas in core using 1042 resolution steps

c 0 RAT lemmas in core; 0 redundant literals in core lemmas

s VERIFIED

c verification time: 0.065 seconds
